149
1000000
560608
443659
496008
403838
130285
602451
121072
646741
185727
327439
672361
44530
746025
38054
390355
170833
289153
547436
616857
111092
153267
137689
194070
74081
447867
291446
22243
73430
110027
56194
139167
154296
158827
442738
344427
178543
544885
73540
171125
749741
43105
589928
103487
148092
692758
413436
480822
319861
655742
271
466308
108748
488776
7939
536988
41398
137526
177233
122973
53006
438520
741066
69695
253975
56058
562958
26923
272842
716787
128199
290053
437042
220507
559323
24395
260995
562073
654654
258934
265588
276286
219142
589470
45833
704527
222091
522396
294344
123040
17990
596162
90451
256445
277321
383143
410530
213809
54092
53340
442699
568384
490777
604185
283213
344258
168305
281887
68104
191076
284850
261980
542196
227898
644826
152306
223523
54629
519178
484286
60205
107457
26702
394642
649746
81115
457943
709947
557301
322057
276714
455115
174026
103109
257663
143419
182947
156040
295473
210952
179043
168651
43118
739005
181784
101978
79758
452564
731746
59697
